Problem:    Mediane
Rows:       82
Columns:    78 (77 integer, 77 binary)
Non-zeros:  211
Status:     INTEGER OPTIMAL
Objective:  z = 293 (MINimum)

   No.   Row name        Activity     Lower bound   Upper bound
------ ------------    ------------- ------------- -------------
     1 z                         293                             
     2 magazzini_selezionati
                                   2             2             = 
     3 def_max[1,1]              293            -0               
     4 def_max[1,2]              293            -0               
     5 def_max[1,3]              293            -0               
     6 def_max[1,4]              293            -0               
     7 def_max[1,5]              293            -0               
     8 def_max[1,6]              293            -0               
     9 def_max[1,7]              293            -0               
    10 def_max[1,8]              293            -0               
    11 def_max[1,9]              293            -0               
    12 def_max[1,10]
                                 293            -0               
    13 def_max[2,1]              293            -0               
    14 def_max[2,2]              293            -0               
    15 def_max[2,3]              293            -0               
    16 def_max[2,4]              293            -0               
    17 def_max[2,5]              293            -0               
    18 def_max[2,6]              293            -0               
    19 def_max[2,7]              293            -0               
    20 def_max[2,8]              293            -0               
    21 def_max[2,9]              293            -0               
    22 def_max[2,10]
                                 293            -0               
    23 def_max[3,1]              293            -0               
    24 def_max[3,2]              293            -0               
    25 def_max[3,3]              293            -0               
    26 def_max[3,4]              293            -0               
    27 def_max[3,5]              293            -0               
    28 def_max[3,6]              293            -0               
    29 def_max[3,7]              293            -0               
    30 def_max[3,8]              293            -0               
    31 def_max[3,9]              293            -0               
    32 def_max[3,10]
                                 293            -0               
    33 def_max[4,1]              293            -0               
    34 def_max[4,2]              293            -0               
    35 def_max[4,3]              293            -0               
    36 def_max[4,4]              293            -0               
    37 def_max[4,5]              293            -0               
    38 def_max[4,6]              293            -0               
    39 def_max[4,7]              293            -0               
    40 def_max[4,8]              293            -0               
    41 def_max[4,9]              293            -0               
    42 def_max[4,10]
                                 293            -0               
    43 def_max[5,1]              293            -0               
    44 def_max[5,2]              293            -0               
    45 def_max[5,3]              293            -0               
    46 def_max[5,4]              293            -0               
    47 def_max[5,5]              293            -0               
    48 def_max[5,6]              293            -0               
    49 def_max[5,7]              293            -0               
    50 def_max[5,8]              293            -0               
    51 def_max[5,9]              293            -0               
    52 def_max[5,10]
                                   0            -0               
    53 def_max[6,1]              293            -0               
    54 def_max[6,2]              293            -0               
    55 def_max[6,3]              293            -0               
    56 def_max[6,4]              293            -0               
    57 def_max[6,5]              293            -0               
    58 def_max[6,6]              293            -0               
    59 def_max[6,7]               12            -0               
    60 def_max[6,8]              293            -0               
    61 def_max[6,9]              293            -0               
    62 def_max[6,10]
                                 293            -0               
    63 def_max[7,1]              293            -0               
    64 def_max[7,2]              293            -0               
    65 def_max[7,3]              293            -0               
    66 def_max[7,4]              293            -0               
    67 def_max[7,5]              293            -0               
    68 def_max[7,6]              293            -0               
    69 def_max[7,7]              293            -0               
    70 def_max[7,8]              293            -0               
    71 def_max[7,9]               73            -0               
    72 def_max[7,10]
                                 293            -0               
    73 assegnamento[1]
                                   1             1             = 
    74 assegnamento[2]
                                   1             1             = 
    75 assegnamento[3]
                                   1             1             = 
    76 assegnamento[4]
                                   1             1             = 
    77 assegnamento[5]
                                   1             1             = 
    78 assegnamento[6]
                                   1             1             = 
    79 assegnamento[7]
                                   1             1             = 
    80 assegnamento[8]
                                   1             1             = 
    81 assegnamento[9]
                                   1             1             = 
    82 assegnamento[10]
                                   1             1             = 

   No. Column name       Activity     Lower bound   Upper bound
------ ------------    ------------- ------------- -------------
     1 x[1,1]       *              1             0             1 
     2 x[1,2]       *              0             0             1 
     3 x[1,3]       *              0             0             1 
     4 x[1,4]       *              0             0             1 
     5 x[1,5]       *              0             0             1 
     6 x[1,6]       *              0             0             1 
     7 x[1,7]       *              0             0             1 
     8 x[1,8]       *              0             0             1 
     9 x[1,9]       *              0             0             1 
    10 x[1,10]      *              0             0             1 
    11 x[2,1]       *              0             0             1 
    12 x[2,2]       *              1             0             1 
    13 x[2,3]       *              0             0             1 
    14 x[2,4]       *              0             0             1 
    15 x[2,5]       *              0             0             1 
    16 x[2,6]       *              0             0             1 
    17 x[2,7]       *              0             0             1 
    18 x[2,8]       *              0             0             1 
    19 x[2,9]       *              0             0             1 
    20 x[2,10]      *              0             0             1 
    21 x[3,1]       *              0             0             1 
    22 x[3,2]       *              0             0             1 
    23 x[3,3]       *              1             0             1 
    24 x[3,4]       *              0             0             1 
    25 x[3,5]       *              0             0             1 
    26 x[3,6]       *              0             0             1 
    27 x[3,7]       *              0             0             1 
    28 x[3,8]       *              0             0             1 
    29 x[3,9]       *              0             0             1 
    30 x[3,10]      *              0             0             1 
    31 x[4,1]       *              0             0             1 
    32 x[4,2]       *              0             0             1 
    33 x[4,3]       *              0             0             1 
    34 x[4,4]       *              1             0             1 
    35 x[4,5]       *              0             0             1 
    36 x[4,6]       *              0             0             1 
    37 x[4,7]       *              0             0             1 
    38 x[4,8]       *              0             0             1 
    39 x[4,9]       *              0             0             1 
    40 x[4,10]      *              0             0             1 
    41 x[5,1]       *              0             0             1 
    42 x[5,2]       *              0             0             1 
    43 x[5,3]       *              0             0             1 
    44 x[5,4]       *              0             0             1 
    45 x[5,5]       *              1             0             1 
    46 x[5,6]       *              0             0             1 
    47 x[5,7]       *              0             0             1 
    48 x[5,8]       *              0             0             1 
    49 x[5,9]       *              0             0             1 
    50 x[5,10]      *              1             0             1 
    51 x[6,1]       *              0             0             1 
    52 x[6,2]       *              0             0             1 
    53 x[6,3]       *              0             0             1 
    54 x[6,4]       *              0             0             1 
    55 x[6,5]       *              0             0             1 
    56 x[6,6]       *              1             0             1 
    57 x[6,7]       *              1             0             1 
    58 x[6,8]       *              0             0             1 
    59 x[6,9]       *              0             0             1 
    60 x[6,10]      *              0             0             1 
    61 x[7,1]       *              0             0             1 
    62 x[7,2]       *              0             0             1 
    63 x[7,3]       *              0             0             1 
    64 x[7,4]       *              0             0             1 
    65 x[7,5]       *              0             0             1 
    66 x[7,6]       *              0             0             1 
    67 x[7,7]       *              0             0             1 
    68 x[7,8]       *              1             0             1 
    69 x[7,9]       *              1             0             1 
    70 x[7,10]      *              0             0             1 
    71 y[1]         *              0             0             1 
    72 y[2]         *              0             0             1 
    73 y[3]         *              0             0             1 
    74 y[4]         *              0             0             1 
    75 y[5]         *              0             0             1 
    76 y[6]         *              1             0             1 
    77 y[7]         *              1             0             1 
    78 d_max                     293             0               

Integer feasibility conditions:

KKT.PE: max.abs.err = 0.00e+000 on row 0
        max.rel.err = 0.00e+000 on row 0
        High quality

KKT.PB: max.abs.err = 5.68e-014 on row 52
        max.rel.err = 5.68e-014 on row 52
        High quality

End of output
